Running MiniSat on FULL_RUN_MINISAT\29e61b1317804fb897e84237613d42bb-worker_30_60_25_0.9.cnf... 
============================[ Problem Statistics ]=============================
|                                                                             |
|  Number of variables:          1015                                         |
|  Number of clauses:           21642                                         |
|  Parse time:                   0.07 s                                       |
|                                                                             |
============================[ Search Statistics ]==============================
| Conflicts |          ORIGINAL         |          LEARNT          | Progress |
|           |    Vars  Clauses Literals |    Limit  Clauses Lit/Cl |          |
===============================================================================
|       100 |    1015    21642    44249 |     7935      100    185 |  0.000 % |
|       250 |    1015    21642    44249 |     8728      250    159 |  0.000 % |
|       475 |    1015    21642    44249 |     9601      475    143 |  0.000 % |
|       812 |    1015    21642    44249 |    10562      812    135 |  0.000 % |
|      1318 |    1015    21642    44249 |    11618     1318    149 |  0.004 % |
|      2077 |    1015    21642    44249 |    12780     2077    154 |  0.000 % |
|      3216 |    1015    21642    44249 |    14058     3216    159 |  0.000 % |
|      4924 |    1015    21642    44249 |    15463     4924    150 |  0.000 % |
|      7486 |    1015    21642    44249 |    17010     7486    154 |  0.000 % |
|     11330 |    1015    21642    44249 |    18711    11330    158 |  0.000 % |
|     17096 |    1015    21642    44249 |    20582    17096    172 |  0.000 % |
|     25745 |    1015    21642    44249 |    22640    15409    187 |  0.004 % |
|     38719 |    1015    21642    44249 |    24904    16694    178 |  0.000 % |
|     58180 |    1015    21642    44249 |    27395    22841    220 |  0.000 % |
ERROR: MiniSat process not found for FULL_RUN_MINISAT\2a15a30186afdad41a49c5c5366d01be-Timetable_C_392_E_62_Cl_26_S_28.cnf 
Finished MiniSat on FULL_RUN_MINISAT\2a15a30186afdad41a49c5c5366d01be-Timetable_C_392_E_62_Cl_26_S_28.cnf